          22
          30
           1           6          16
           2           1          24
           3           1          24
           4           1          24
           5          28           6
           6          28           6
           7          28           6
           8          23           8
           9          23           8
          10          23           8
          11           1           5
          12           1           5
          13           1           5
          14          26           6
          15          26           6
          16          30           2
          17          30           2
          18          11           9
          19          11           9
          20          11           9
          21          30           4
          22          13          16
